\ Model model1
\ LP format - for model browsing. Use MPS format to capture full model detail.
Minimize
  P_grid_bought[2019-02-05_07_00_00] + P_grid_bought[2019-02-05_08_00_00]
   + P_grid_bought[2019-02-05_09_00_00]
   + P_grid_bought[2019-02-05_10_00_00]
   + P_grid_bought[2019-02-05_11_00_00]
   + P_grid_bought[2019-02-05_12_00_00]
   + P_grid_bought[2019-02-05_13_00_00]
   + P_grid_bought[2019-02-05_14_00_00]
   + P_grid_bought[2019-02-05_15_00_00]
   + P_grid_bought[2019-02-05_16_00_00]
   + P_grid_bought[2019-02-05_17_00_00]
   + P_grid_bought[2019-02-05_18_00_00]
   + P_grid_bought[2019-02-05_19_00_00]
   + P_grid_bought[2019-02-05_20_00_00]
   + P_grid_bought[2019-02-05_21_00_00]
   + P_grid_bought[2019-02-05_22_00_00]
   + P_grid_bought[2019-02-05_23_00_00]
   + P_grid_bought[2019-02-06_00_00_00]
   + P_grid_bought[2019-02-06_01_00_00]
   + P_grid_bought[2019-02-06_02_00_00]
   + P_grid_bought[2019-02-06_03_00_00]
   + P_grid_bought[2019-02-06_04_00_00]
   + P_grid_bought[2019-02-06_05_00_00]
   + P_grid_bought[2019-02-06_06_00_00]
Subject To
 R0: P_PV_2EV[2019-02-05_07_00_00] + P_PV_2L[2019-02-05_07_00_00]
   + P_PV_2G[2019-02-05_07_00_00] = 5198.501988677976
 R1: P_PV_2EV[2019-02-05_08_00_00] + P_PV_2L[2019-02-05_08_00_00]
   + P_PV_2G[2019-02-05_08_00_00] = 2527.733359089296
 R2: P_PV_2EV[2019-02-05_09_00_00] + P_PV_2L[2019-02-05_09_00_00]
   + P_PV_2G[2019-02-05_09_00_00] = 3861.909917174403
 R3: P_PV_2EV[2019-02-05_10_00_00] + P_PV_2L[2019-02-05_10_00_00]
   + P_PV_2G[2019-02-05_10_00_00] = 6282.099727193947
 R4: P_PV_2EV[2019-02-05_11_00_00] + P_PV_2L[2019-02-05_11_00_00]
   + P_PV_2G[2019-02-05_11_00_00] = 8025.916521178983
 R5: P_PV_2EV[2019-02-05_12_00_00] + P_PV_2L[2019-02-05_12_00_00]
   + P_PV_2G[2019-02-05_12_00_00] = 8004.782709606508
 R6: P_PV_2EV[2019-02-05_13_00_00] + P_PV_2L[2019-02-05_13_00_00]
   + P_PV_2G[2019-02-05_13_00_00] = 7474.231312578107
 R7: P_PV_2EV[2019-02-05_14_00_00] + P_PV_2L[2019-02-05_14_00_00]
   + P_PV_2G[2019-02-05_14_00_00] = 6083.587851697793
 R8: P_PV_2EV[2019-02-05_15_00_00] + P_PV_2L[2019-02-05_15_00_00]
   + P_PV_2G[2019-02-05_15_00_00] = 4329.107503397986
 R9: P_PV_2EV[2019-02-05_16_00_00] + P_PV_2L[2019-02-05_16_00_00]
   + P_PV_2G[2019-02-05_16_00_00] = 2569.936199706065
 R10: P_PV_2EV[2019-02-05_17_00_00] + P_PV_2L[2019-02-05_17_00_00]
   + P_PV_2G[2019-02-05_17_00_00] = 1423.007061081465
 R11: P_PV_2EV[2019-02-05_18_00_00] + P_PV_2L[2019-02-05_18_00_00]
   + P_PV_2G[2019-02-05_18_00_00] = 601.4287354981593
 R12: P_PV_2EV[2019-02-05_19_00_00] + P_PV_2L[2019-02-05_19_00_00]
   + P_PV_2G[2019-02-05_19_00_00] = 179.5876733984652
 R13: P_PV_2EV[2019-02-05_20_00_00] + P_PV_2L[2019-02-05_20_00_00]
   + P_PV_2G[2019-02-05_20_00_00] = 117.1530741421927
 R14: P_PV_2EV[2019-02-05_21_00_00] + P_PV_2L[2019-02-05_21_00_00]
   + P_PV_2G[2019-02-05_21_00_00] = 68.52625796045443
 R15: P_PV_2EV[2019-02-05_22_00_00] + P_PV_2L[2019-02-05_22_00_00]
   + P_PV_2G[2019-02-05_22_00_00] = 34.23984228766409
 R16: P_PV_2EV[2019-02-05_23_00_00] + P_PV_2L[2019-02-05_23_00_00]
   + P_PV_2G[2019-02-05_23_00_00] = 22.66057818262939
 R17: P_PV_2EV[2019-02-06_00_00_00] + P_PV_2L[2019-02-06_00_00_00]
   + P_PV_2G[2019-02-06_00_00_00] = 12.3293407286469
 R18: P_PV_2EV[2019-02-06_01_00_00] + P_PV_2L[2019-02-06_01_00_00]
   + P_PV_2G[2019-02-06_01_00_00] = 22.39234349836844
 R19: P_PV_2EV[2019-02-06_02_00_00] + P_PV_2L[2019-02-06_02_00_00]
   + P_PV_2G[2019-02-06_02_00_00] = 45.69129221547263
 R20: P_PV_2EV[2019-02-06_03_00_00] + P_PV_2L[2019-02-06_03_00_00]
   + P_PV_2G[2019-02-06_03_00_00] = 51.91916931675313
 R21: P_PV_2EV[2019-02-06_04_00_00] + P_PV_2L[2019-02-06_04_00_00]
   + P_PV_2G[2019-02-06_04_00_00] = 126.7657507970845
 R22: P_PV_2EV[2019-02-06_05_00_00] + P_PV_2L[2019-02-06_05_00_00]
   + P_PV_2G[2019-02-06_05_00_00] = 225.7762152897218
 R23: P_PV_2EV[2019-02-06_06_00_00] + P_PV_2L[2019-02-06_06_00_00]
   + P_PV_2G[2019-02-06_06_00_00] = 656.7200980387152
 R24: - SOC[2019-02-05_06_00_00] + SOC[2019-02-05_07_00_00]
   - 2.25e-05 P_EV[2019-02-05_07_00_00] = 0
 R25: - SOC[2019-02-05_07_00_00] + SOC[2019-02-05_08_00_00]
   - 2.25e-05 P_EV[2019-02-05_08_00_00] = 0
 R26: - SOC[2019-02-05_08_00_00] + SOC[2019-02-05_09_00_00]
   - 2.25e-05 P_EV[2019-02-05_09_00_00] = 0
 R27: - SOC[2019-02-05_09_00_00] + SOC[2019-02-05_10_00_00]
   - 2.25e-05 P_EV[2019-02-05_10_00_00] = 0
 R28: - SOC[2019-02-05_10_00_00] + SOC[2019-02-05_11_00_00]
   - 2.25e-05 P_EV[2019-02-05_11_00_00] = 0
 R29: - SOC[2019-02-05_11_00_00] + SOC[2019-02-05_12_00_00]
   - 2.25e-05 P_EV[2019-02-05_12_00_00] = 0
 R30: - SOC[2019-02-05_12_00_00] + SOC[2019-02-05_13_00_00]
   - 2.25e-05 P_EV[2019-02-05_13_00_00] = 0
 R31: - SOC[2019-02-05_13_00_00] + SOC[2019-02-05_14_00_00]
   - 2.25e-05 P_EV[2019-02-05_14_00_00] = 0
 R32: - SOC[2019-02-05_14_00_00] + SOC[2019-02-05_15_00_00] = 0
 R33: - SOC[2019-02-05_16_00_00] + SOC[2019-02-05_17_00_00]
   - 2.25e-05 P_EV[2019-02-05_17_00_00] = 0
 R34: - SOC[2019-02-05_17_00_00] + SOC[2019-02-05_18_00_00]
   - 2.25e-05 P_EV[2019-02-05_18_00_00] = 0
 R35: - SOC[2019-02-05_18_00_00] + SOC[2019-02-05_19_00_00]
   - 2.25e-05 P_EV[2019-02-05_19_00_00] = 0
 R36: - SOC[2019-02-05_19_00_00] + SOC[2019-02-05_20_00_00]
   - 2.25e-05 P_EV[2019-02-05_20_00_00] = 0
 R37: - SOC[2019-02-05_20_00_00] + SOC[2019-02-05_21_00_00]
   - 2.25e-05 P_EV[2019-02-05_21_00_00] = 0
 R38: - SOC[2019-02-05_21_00_00] + SOC[2019-02-05_22_00_00]
   - 2.25e-05 P_EV[2019-02-05_22_00_00] = 0
 R39: - SOC[2019-02-05_22_00_00] + SOC[2019-02-05_23_00_00]
   - 2.25e-05 P_EV[2019-02-05_23_00_00] = 0
 R40: - SOC[2019-02-05_23_00_00] + SOC[2019-02-06_00_00_00]
   - 2.25e-05 P_EV[2019-02-06_00_00_00] = 0
 R41: - SOC[2019-02-06_00_00_00] + SOC[2019-02-06_01_00_00]
   - 2.25e-05 P_EV[2019-02-06_01_00_00] = 0
 R42: - SOC[2019-02-06_01_00_00] + SOC[2019-02-06_02_00_00]
   - 2.25e-05 P_EV[2019-02-06_02_00_00] = 0
 R43: - SOC[2019-02-06_02_00_00] + SOC[2019-02-06_03_00_00]
   - 2.25e-05 P_EV[2019-02-06_03_00_00] = 0
 R44: - SOC[2019-02-06_03_00_00] + SOC[2019-02-06_04_00_00]
   - 2.25e-05 P_EV[2019-02-06_04_00_00] = 0
 R45: - SOC[2019-02-06_04_00_00] + SOC[2019-02-06_05_00_00]
   - 2.25e-05 P_EV[2019-02-06_05_00_00] = 0
 R46: - SOC[2019-02-06_05_00_00] + SOC[2019-02-06_06_00_00]
   - 2.25e-05 P_EV[2019-02-06_06_00_00] = 0
 R47: SOC[2019-02-05_14_00_00] >= 1
 R48: SOC[2019-02-05_16_00_00] = 0.2060642709188964
 R49: SOC[2019-02-05_06_00_00] = 0.589595315280835
 qc0: - P_EV[2019-02-05_07_00_00] - P_grid_sold[2019-02-05_07_00_00] + [
   P_grid_bought[2019-02-05_07_00_00] * y_grid[2019-02-05_07_00_00]
   + P_grid_sold[2019-02-05_07_00_00] * y_grid[2019-02-05_07_00_00] ]
   = -2584.353555164064
 qc1: - P_EV[2019-02-05_08_00_00] - P_grid_sold[2019-02-05_08_00_00] + [
   P_grid_bought[2019-02-05_08_00_00] * y_grid[2019-02-05_08_00_00]
   + P_grid_sold[2019-02-05_08_00_00] * y_grid[2019-02-05_08_00_00] ]
   = -542.153904632358
 qc2: - P_EV[2019-02-05_09_00_00] - P_grid_sold[2019-02-05_09_00_00] + [
   P_grid_bought[2019-02-05_09_00_00] * y_grid[2019-02-05_09_00_00]
   + P_grid_sold[2019-02-05_09_00_00] * y_grid[2019-02-05_09_00_00] ]
   = 516.1824898417385
 qc3: - P_EV[2019-02-05_10_00_00] - P_grid_sold[2019-02-05_10_00_00] + [
   P_grid_bought[2019-02-05_10_00_00] * y_grid[2019-02-05_10_00_00]
   + P_grid_sold[2019-02-05_10_00_00] * y_grid[2019-02-05_10_00_00] ]
   = -3396.857956526781
 qc4: - P_EV[2019-02-05_11_00_00] - P_grid_sold[2019-02-05_11_00_00] + [
   P_grid_bought[2019-02-05_11_00_00] * y_grid[2019-02-05_11_00_00]
   + P_grid_sold[2019-02-05_11_00_00] * y_grid[2019-02-05_11_00_00] ]
   = 259.5907084649998
 qc5: - P_EV[2019-02-05_12_00_00] - P_grid_sold[2019-02-05_12_00_00] + [
   P_grid_bought[2019-02-05_12_00_00] * y_grid[2019-02-05_12_00_00]
   + P_grid_sold[2019-02-05_12_00_00] * y_grid[2019-02-05_12_00_00] ]
   = -5286.029160808665
 qc6: - P_EV[2019-02-05_13_00_00] - P_grid_sold[2019-02-05_13_00_00] + [
   P_grid_bought[2019-02-05_13_00_00] * y_grid[2019-02-05_13_00_00]
   + P_grid_sold[2019-02-05_13_00_00] * y_grid[2019-02-05_13_00_00] ]
   = -3727.253730142508
 qc7: - P_EV[2019-02-05_14_00_00] - P_grid_sold[2019-02-05_14_00_00] + [
   P_grid_bought[2019-02-05_14_00_00] * y_grid[2019-02-05_14_00_00]
   + P_grid_sold[2019-02-05_14_00_00] * y_grid[2019-02-05_14_00_00] ]
   = -3037.192845223017
 qc8: - P_grid_sold[2019-02-05_15_00_00] + [
   P_grid_bought[2019-02-05_15_00_00] * y_grid[2019-02-05_15_00_00]
   + P_grid_sold[2019-02-05_15_00_00] * y_grid[2019-02-05_15_00_00] ]
   = -1339.940262299518
 qc9: - P_grid_sold[2019-02-05_16_00_00] + [
   P_grid_bought[2019-02-05_16_00_00] * y_grid[2019-02-05_16_00_00]
   + P_grid_sold[2019-02-05_16_00_00] * y_grid[2019-02-05_16_00_00] ]
   = 1386.557167069438
 qc10: - P_EV[2019-02-05_17_00_00] - P_grid_sold[2019-02-05_17_00_00] + [
   P_grid_bought[2019-02-05_17_00_00] * y_grid[2019-02-05_17_00_00]
   + P_grid_sold[2019-02-05_17_00_00] * y_grid[2019-02-05_17_00_00] ]
   = 1882.576791685692
 qc11: - P_EV[2019-02-05_18_00_00] - P_grid_sold[2019-02-05_18_00_00] + [
   P_grid_bought[2019-02-05_18_00_00] * y_grid[2019-02-05_18_00_00]
   + P_grid_sold[2019-02-05_18_00_00] * y_grid[2019-02-05_18_00_00] ]
   = 2605.092119333652
 qc12: - P_EV[2019-02-05_19_00_00] - P_grid_sold[2019-02-05_19_00_00] + [
   P_grid_bought[2019-02-05_19_00_00] * y_grid[2019-02-05_19_00_00]
   + P_grid_sold[2019-02-05_19_00_00] * y_grid[2019-02-05_19_00_00] ]
   = 2596.910418201379
 qc13: - P_EV[2019-02-05_20_00_00] - P_grid_sold[2019-02-05_20_00_00] + [
   P_grid_bought[2019-02-05_20_00_00] * y_grid[2019-02-05_20_00_00]
   + P_grid_sold[2019-02-05_20_00_00] * y_grid[2019-02-05_20_00_00] ]
   = 1864.451064304999
 qc14: - P_EV[2019-02-05_21_00_00] - P_grid_sold[2019-02-05_21_00_00] + [
   P_grid_bought[2019-02-05_21_00_00] * y_grid[2019-02-05_21_00_00]
   + P_grid_sold[2019-02-05_21_00_00] * y_grid[2019-02-05_21_00_00] ]
   = 2205.867195430911
 qc15: - P_EV[2019-02-05_22_00_00] - P_grid_sold[2019-02-05_22_00_00] + [
   P_grid_bought[2019-02-05_22_00_00] * y_grid[2019-02-05_22_00_00]
   + P_grid_sold[2019-02-05_22_00_00] * y_grid[2019-02-05_22_00_00] ]
   = 5472.683707853923
 qc16: - P_EV[2019-02-05_23_00_00] - P_grid_sold[2019-02-05_23_00_00] + [
   P_grid_bought[2019-02-05_23_00_00] * y_grid[2019-02-05_23_00_00]
   + P_grid_sold[2019-02-05_23_00_00] * y_grid[2019-02-05_23_00_00] ]
   = 1281.175531436428
 qc17: - P_EV[2019-02-06_00_00_00] - P_grid_sold[2019-02-06_00_00_00] + [
   P_grid_bought[2019-02-06_00_00_00] * y_grid[2019-02-06_00_00_00]
   + P_grid_sold[2019-02-06_00_00_00] * y_grid[2019-02-06_00_00_00] ]
   = 1248.820824143687
 qc18: - P_EV[2019-02-06_01_00_00] - P_grid_sold[2019-02-06_01_00_00] + [
   P_grid_bought[2019-02-06_01_00_00] * y_grid[2019-02-06_01_00_00]
   + P_grid_sold[2019-02-06_01_00_00] * y_grid[2019-02-06_01_00_00] ]
   = 1122.986303007392
 qc19: - P_EV[2019-02-06_02_00_00] - P_grid_sold[2019-02-06_02_00_00] + [
   P_grid_bought[2019-02-06_02_00_00] * y_grid[2019-02-06_02_00_00]
   + P_grid_sold[2019-02-06_02_00_00] * y_grid[2019-02-06_02_00_00] ]
   = 1315.274635838122
 qc20: - P_EV[2019-02-06_03_00_00] - P_grid_sold[2019-02-06_03_00_00] + [
   P_grid_bought[2019-02-06_03_00_00] * y_grid[2019-02-06_03_00_00]
   + P_grid_sold[2019-02-06_03_00_00] * y_grid[2019-02-06_03_00_00] ]
   = 5170.749198982189
 qc21: - P_EV[2019-02-06_04_00_00] - P_grid_sold[2019-02-06_04_00_00] + [
   P_grid_bought[2019-02-06_04_00_00] * y_grid[2019-02-06_04_00_00]
   + P_grid_sold[2019-02-06_04_00_00] * y_grid[2019-02-06_04_00_00] ]
   = 4095.768308122829
 qc22: - P_EV[2019-02-06_05_00_00] - P_grid_sold[2019-02-06_05_00_00] + [
   P_grid_bought[2019-02-06_05_00_00] * y_grid[2019-02-06_05_00_00]
   + P_grid_sold[2019-02-06_05_00_00] * y_grid[2019-02-06_05_00_00] ]
   = 833.6412002963033
 qc23: - P_EV[2019-02-06_06_00_00] - P_grid_sold[2019-02-06_06_00_00] + [
   P_grid_bought[2019-02-06_06_00_00] * y_grid[2019-02-06_06_00_00]
   + P_grid_sold[2019-02-06_06_00_00] * y_grid[2019-02-06_06_00_00] ]
   = 587.7422144298848
 qc24: P_grid_bought[2019-02-05_07_00_00] - P_grid_2L[2019-02-05_07_00_00]
   + [ - P_grid_2EV[2019-02-05_07_00_00] * y_grid_2EV[2019-02-05_07_00_00]
   ] = 0
 qc25: P_grid_bought[2019-02-05_08_00_00] - P_grid_2L[2019-02-05_08_00_00]
   + [ - P_grid_2EV[2019-02-05_08_00_00] * y_grid_2EV[2019-02-05_08_00_00]
   ] = 0
 qc26: P_grid_bought[2019-02-05_09_00_00] - P_grid_2L[2019-02-05_09_00_00]
   + [ - P_grid_2EV[2019-02-05_09_00_00] * y_grid_2EV[2019-02-05_09_00_00]
   ] = 0
 qc27: P_grid_bought[2019-02-05_10_00_00] - P_grid_2L[2019-02-05_10_00_00]
   + [ - P_grid_2EV[2019-02-05_10_00_00] * y_grid_2EV[2019-02-05_10_00_00]
   ] = 0
 qc28: P_grid_bought[2019-02-05_11_00_00] - P_grid_2L[2019-02-05_11_00_00]
   + [ - P_grid_2EV[2019-02-05_11_00_00] * y_grid_2EV[2019-02-05_11_00_00]
   ] = 0
 qc29: P_grid_bought[2019-02-05_12_00_00] - P_grid_2L[2019-02-05_12_00_00]
   + [ - P_grid_2EV[2019-02-05_12_00_00] * y_grid_2EV[2019-02-05_12_00_00]
   ] = 0
 qc30: P_grid_bought[2019-02-05_13_00_00] - P_grid_2L[2019-02-05_13_00_00]
   + [ - P_grid_2EV[2019-02-05_13_00_00] * y_grid_2EV[2019-02-05_13_00_00]
   ] = 0
 qc31: P_grid_bought[2019-02-05_14_00_00] - P_grid_2L[2019-02-05_14_00_00]
   + [ - P_grid_2EV[2019-02-05_14_00_00] * y_grid_2EV[2019-02-05_14_00_00]
   ] = 0
 qc32: P_grid_bought[2019-02-05_15_00_00] - P_grid_2L[2019-02-05_15_00_00]
   + [ - P_grid_2EV[2019-02-05_15_00_00] * y_grid_2EV[2019-02-05_15_00_00]
   ] = 0
 qc33: P_grid_bought[2019-02-05_16_00_00] - P_grid_2L[2019-02-05_16_00_00]
   + [ - P_grid_2EV[2019-02-05_16_00_00] * y_grid_2EV[2019-02-05_16_00_00]
   ] = 0
 qc34: P_grid_bought[2019-02-05_17_00_00] - P_grid_2L[2019-02-05_17_00_00]
   + [ - P_grid_2EV[2019-02-05_17_00_00] * y_grid_2EV[2019-02-05_17_00_00]
   ] = 0
 qc35: P_grid_bought[2019-02-05_18_00_00] - P_grid_2L[2019-02-05_18_00_00]
   + [ - P_grid_2EV[2019-02-05_18_00_00] * y_grid_2EV[2019-02-05_18_00_00]
   ] = 0
 qc36: P_grid_bought[2019-02-05_19_00_00] - P_grid_2L[2019-02-05_19_00_00]
   + [ - P_grid_2EV[2019-02-05_19_00_00] * y_grid_2EV[2019-02-05_19_00_00]
   ] = 0
 qc37: P_grid_bought[2019-02-05_20_00_00] - P_grid_2L[2019-02-05_20_00_00]
   + [ - P_grid_2EV[2019-02-05_20_00_00] * y_grid_2EV[2019-02-05_20_00_00]
   ] = 0
 qc38: P_grid_bought[2019-02-05_21_00_00] - P_grid_2L[2019-02-05_21_00_00]
   + [ - P_grid_2EV[2019-02-05_21_00_00] * y_grid_2EV[2019-02-05_21_00_00]
   ] = 0
 qc39: P_grid_bought[2019-02-05_22_00_00] - P_grid_2L[2019-02-05_22_00_00]
   + [ - P_grid_2EV[2019-02-05_22_00_00] * y_grid_2EV[2019-02-05_22_00_00]
   ] = 0
 qc40: P_grid_bought[2019-02-05_23_00_00] - P_grid_2L[2019-02-05_23_00_00]
   + [ - P_grid_2EV[2019-02-05_23_00_00] * y_grid_2EV[2019-02-05_23_00_00]
   ] = 0
 qc41: P_grid_bought[2019-02-06_00_00_00] - P_grid_2L[2019-02-06_00_00_00]
   + [ - P_grid_2EV[2019-02-06_00_00_00] * y_grid_2EV[2019-02-06_00_00_00]
   ] = 0
 qc42: P_grid_bought[2019-02-06_01_00_00] - P_grid_2L[2019-02-06_01_00_00]
   + [ - P_grid_2EV[2019-02-06_01_00_00] * y_grid_2EV[2019-02-06_01_00_00]
   ] = 0
 qc43: P_grid_bought[2019-02-06_02_00_00] - P_grid_2L[2019-02-06_02_00_00]
   + [ - P_grid_2EV[2019-02-06_02_00_00] * y_grid_2EV[2019-02-06_02_00_00]
   ] = 0
 qc44: P_grid_bought[2019-02-06_03_00_00] - P_grid_2L[2019-02-06_03_00_00]
   + [ - P_grid_2EV[2019-02-06_03_00_00] * y_grid_2EV[2019-02-06_03_00_00]
   ] = 0
 qc45: P_grid_bought[2019-02-06_04_00_00] - P_grid_2L[2019-02-06_04_00_00]
   + [ - P_grid_2EV[2019-02-06_04_00_00] * y_grid_2EV[2019-02-06_04_00_00]
   ] = 0
 qc46: P_grid_bought[2019-02-06_05_00_00] - P_grid_2L[2019-02-06_05_00_00]
   + [ - P_grid_2EV[2019-02-06_05_00_00] * y_grid_2EV[2019-02-06_05_00_00]
   ] = 0
 qc47: P_grid_bought[2019-02-06_06_00_00] - P_grid_2L[2019-02-06_06_00_00]
   + [ - P_grid_2EV[2019-02-06_06_00_00] * y_grid_2EV[2019-02-06_06_00_00]
   ] = 0
 qc48: - P_PV_2EV[2019-02-05_07_00_00] + P_EV[2019-02-05_07_00_00] + [
   P_PV_2EV[2019-02-05_07_00_00] * y_grid_2EV[2019-02-05_07_00_00]
   - P_grid_2EV[2019-02-05_07_00_00] * y_grid_2EV[2019-02-05_07_00_00] ]
   = 0
 qc49: - P_PV_2EV[2019-02-05_08_00_00] + P_EV[2019-02-05_08_00_00] + [
   P_PV_2EV[2019-02-05_08_00_00] * y_grid_2EV[2019-02-05_08_00_00]
   - P_grid_2EV[2019-02-05_08_00_00] * y_grid_2EV[2019-02-05_08_00_00] ]
   = 0
 qc50: - P_PV_2EV[2019-02-05_09_00_00] + P_EV[2019-02-05_09_00_00] + [
   P_PV_2EV[2019-02-05_09_00_00] * y_grid_2EV[2019-02-05_09_00_00]
   - P_grid_2EV[2019-02-05_09_00_00] * y_grid_2EV[2019-02-05_09_00_00] ]
   = 0
 qc51: - P_PV_2EV[2019-02-05_10_00_00] + P_EV[2019-02-05_10_00_00] + [
   P_PV_2EV[2019-02-05_10_00_00] * y_grid_2EV[2019-02-05_10_00_00]
   - P_grid_2EV[2019-02-05_10_00_00] * y_grid_2EV[2019-02-05_10_00_00] ]
   = 0
 qc52: - P_PV_2EV[2019-02-05_11_00_00] + P_EV[2019-02-05_11_00_00] + [
   P_PV_2EV[2019-02-05_11_00_00] * y_grid_2EV[2019-02-05_11_00_00]
   - P_grid_2EV[2019-02-05_11_00_00] * y_grid_2EV[2019-02-05_11_00_00] ]
   = 0
 qc53: - P_PV_2EV[2019-02-05_12_00_00] + P_EV[2019-02-05_12_00_00] + [
   P_PV_2EV[2019-02-05_12_00_00] * y_grid_2EV[2019-02-05_12_00_00]
   - P_grid_2EV[2019-02-05_12_00_00] * y_grid_2EV[2019-02-05_12_00_00] ]
   = 0
 qc54: - P_PV_2EV[2019-02-05_13_00_00] + P_EV[2019-02-05_13_00_00] + [
   P_PV_2EV[2019-02-05_13_00_00] * y_grid_2EV[2019-02-05_13_00_00]
   - P_grid_2EV[2019-02-05_13_00_00] * y_grid_2EV[2019-02-05_13_00_00] ]
   = 0
 qc55: - P_PV_2EV[2019-02-05_14_00_00] + P_EV[2019-02-05_14_00_00] + [
   P_PV_2EV[2019-02-05_14_00_00] * y_grid_2EV[2019-02-05_14_00_00]
   - P_grid_2EV[2019-02-05_14_00_00] * y_grid_2EV[2019-02-05_14_00_00] ]
   = 0
 qc56: - P_PV_2EV[2019-02-05_15_00_00] + P_EV[2019-02-05_15_00_00] + [
   P_PV_2EV[2019-02-05_15_00_00] * y_grid_2EV[2019-02-05_15_00_00]
   - P_grid_2EV[2019-02-05_15_00_00] * y_grid_2EV[2019-02-05_15_00_00] ]
   = 0
 qc57: - P_PV_2EV[2019-02-05_16_00_00] + P_EV[2019-02-05_16_00_00] + [
   P_PV_2EV[2019-02-05_16_00_00] * y_grid_2EV[2019-02-05_16_00_00]
   - P_grid_2EV[2019-02-05_16_00_00] * y_grid_2EV[2019-02-05_16_00_00] ]
   = 0
 qc58: - P_PV_2EV[2019-02-05_17_00_00] + P_EV[2019-02-05_17_00_00] + [
   P_PV_2EV[2019-02-05_17_00_00] * y_grid_2EV[2019-02-05_17_00_00]
   - P_grid_2EV[2019-02-05_17_00_00] * y_grid_2EV[2019-02-05_17_00_00] ]
   = 0
 qc59: - P_PV_2EV[2019-02-05_18_00_00] + P_EV[2019-02-05_18_00_00] + [
   P_PV_2EV[2019-02-05_18_00_00] * y_grid_2EV[2019-02-05_18_00_00]
   - P_grid_2EV[2019-02-05_18_00_00] * y_grid_2EV[2019-02-05_18_00_00] ]
   = 0
 qc60: - P_PV_2EV[2019-02-05_19_00_00] + P_EV[2019-02-05_19_00_00] + [
   P_PV_2EV[2019-02-05_19_00_00] * y_grid_2EV[2019-02-05_19_00_00]
   - P_grid_2EV[2019-02-05_19_00_00] * y_grid_2EV[2019-02-05_19_00_00] ]
   = 0
 qc61: - P_PV_2EV[2019-02-05_20_00_00] + P_EV[2019-02-05_20_00_00] + [
   P_PV_2EV[2019-02-05_20_00_00] * y_grid_2EV[2019-02-05_20_00_00]
   - P_grid_2EV[2019-02-05_20_00_00] * y_grid_2EV[2019-02-05_20_00_00] ]
   = 0
 qc62: - P_PV_2EV[2019-02-05_21_00_00] + P_EV[2019-02-05_21_00_00] + [
   P_PV_2EV[2019-02-05_21_00_00] * y_grid_2EV[2019-02-05_21_00_00]
   - P_grid_2EV[2019-02-05_21_00_00] * y_grid_2EV[2019-02-05_21_00_00] ]
   = 0
 qc63: - P_PV_2EV[2019-02-05_22_00_00] + P_EV[2019-02-05_22_00_00] + [
   P_PV_2EV[2019-02-05_22_00_00] * y_grid_2EV[2019-02-05_22_00_00]
   - P_grid_2EV[2019-02-05_22_00_00] * y_grid_2EV[2019-02-05_22_00_00] ]
   = 0
 qc64: - P_PV_2EV[2019-02-05_23_00_00] + P_EV[2019-02-05_23_00_00] + [
   P_PV_2EV[2019-02-05_23_00_00] * y_grid_2EV[2019-02-05_23_00_00]
   - P_grid_2EV[2019-02-05_23_00_00] * y_grid_2EV[2019-02-05_23_00_00] ]
   = 0
 qc65: - P_PV_2EV[2019-02-06_00_00_00] + P_EV[2019-02-06_00_00_00] + [
   P_PV_2EV[2019-02-06_00_00_00] * y_grid_2EV[2019-02-06_00_00_00]
   - P_grid_2EV[2019-02-06_00_00_00] * y_grid_2EV[2019-02-06_00_00_00] ]
   = 0
 qc66: - P_PV_2EV[2019-02-06_01_00_00] + P_EV[2019-02-06_01_00_00] + [
   P_PV_2EV[2019-02-06_01_00_00] * y_grid_2EV[2019-02-06_01_00_00]
   - P_grid_2EV[2019-02-06_01_00_00] * y_grid_2EV[2019-02-06_01_00_00] ]
   = 0
 qc67: - P_PV_2EV[2019-02-06_02_00_00] + P_EV[2019-02-06_02_00_00] + [
   P_PV_2EV[2019-02-06_02_00_00] * y_grid_2EV[2019-02-06_02_00_00]
   - P_grid_2EV[2019-02-06_02_00_00] * y_grid_2EV[2019-02-06_02_00_00] ]
   = 0
 qc68: - P_PV_2EV[2019-02-06_03_00_00] + P_EV[2019-02-06_03_00_00] + [
   P_PV_2EV[2019-02-06_03_00_00] * y_grid_2EV[2019-02-06_03_00_00]
   - P_grid_2EV[2019-02-06_03_00_00] * y_grid_2EV[2019-02-06_03_00_00] ]
   = 0
 qc69: - P_PV_2EV[2019-02-06_04_00_00] + P_EV[2019-02-06_04_00_00] + [
   P_PV_2EV[2019-02-06_04_00_00] * y_grid_2EV[2019-02-06_04_00_00]
   - P_grid_2EV[2019-02-06_04_00_00] * y_grid_2EV[2019-02-06_04_00_00] ]
   = 0
 qc70: - P_PV_2EV[2019-02-06_05_00_00] + P_EV[2019-02-06_05_00_00] + [
   P_PV_2EV[2019-02-06_05_00_00] * y_grid_2EV[2019-02-06_05_00_00]
   - P_grid_2EV[2019-02-06_05_00_00] * y_grid_2EV[2019-02-06_05_00_00] ]
   = 0
 qc71: - P_PV_2EV[2019-02-06_06_00_00] + P_EV[2019-02-06_06_00_00] + [
   P_PV_2EV[2019-02-06_06_00_00] * y_grid_2EV[2019-02-06_06_00_00]
   - P_grid_2EV[2019-02-06_06_00_00] * y_grid_2EV[2019-02-06_06_00_00] ]
   = 0
Bounds
 0.2 <= SOC[2019-02-05_06_00_00] <= 1
 0.2 <= SOC[2019-02-05_07_00_00] <= 1
 0.2 <= SOC[2019-02-05_08_00_00] <= 1
 0.2 <= SOC[2019-02-05_09_00_00] <= 1
 0.2 <= SOC[2019-02-05_10_00_00] <= 1
 0.2 <= SOC[2019-02-05_11_00_00] <= 1
 0.2 <= SOC[2019-02-05_12_00_00] <= 1
 0.2 <= SOC[2019-02-05_13_00_00] <= 1
 0.2 <= SOC[2019-02-05_14_00_00] <= 1
 0.2 <= SOC[2019-02-05_15_00_00] <= 1
 0.2 <= SOC[2019-02-05_16_00_00] <= 1
 0.2 <= SOC[2019-02-05_17_00_00] <= 1
 0.2 <= SOC[2019-02-05_18_00_00] <= 1
 0.2 <= SOC[2019-02-05_19_00_00] <= 1
 0.2 <= SOC[2019-02-05_20_00_00] <= 1
 0.2 <= SOC[2019-02-05_21_00_00] <= 1
 0.2 <= SOC[2019-02-05_22_00_00] <= 1
 0.2 <= SOC[2019-02-05_23_00_00] <= 1
 0.2 <= SOC[2019-02-06_00_00_00] <= 1
 0.2 <= SOC[2019-02-06_01_00_00] <= 1
 0.2 <= SOC[2019-02-06_02_00_00] <= 1
 0.2 <= SOC[2019-02-06_03_00_00] <= 1
 0.2 <= SOC[2019-02-06_04_00_00] <= 1
 0.2 <= SOC[2019-02-06_05_00_00] <= 1
 0.2 <= SOC[2019-02-06_06_00_00] <= 1
 P_EV[2019-02-05_07_00_00] <= 5000
 P_EV[2019-02-05_08_00_00] <= 5000
 P_EV[2019-02-05_09_00_00] <= 5000
 P_EV[2019-02-05_10_00_00] <= 5000
 P_EV[2019-02-05_11_00_00] <= 5000
 P_EV[2019-02-05_12_00_00] <= 5000
 P_EV[2019-02-05_13_00_00] <= 5000
 P_EV[2019-02-05_14_00_00] <= 5000
 P_EV[2019-02-05_15_00_00] <= 5000
 P_EV[2019-02-05_16_00_00] <= 5000
 P_EV[2019-02-05_17_00_00] <= 5000
 P_EV[2019-02-05_18_00_00] <= 5000
 P_EV[2019-02-05_19_00_00] <= 5000
 P_EV[2019-02-05_20_00_00] <= 5000
 P_EV[2019-02-05_21_00_00] <= 5000
 P_EV[2019-02-05_22_00_00] <= 5000
 P_EV[2019-02-05_23_00_00] <= 5000
 P_EV[2019-02-06_00_00_00] <= 5000
 P_EV[2019-02-06_01_00_00] <= 5000
 P_EV[2019-02-06_02_00_00] <= 5000
 P_EV[2019-02-06_03_00_00] <= 5000
 P_EV[2019-02-06_04_00_00] <= 5000
 P_EV[2019-02-06_05_00_00] <= 5000
 P_EV[2019-02-06_06_00_00] <= 5000
Binaries
 y_grid[2019-02-05_07_00_00] y_grid[2019-02-05_08_00_00]
 y_grid[2019-02-05_09_00_00] y_grid[2019-02-05_10_00_00]
 y_grid[2019-02-05_11_00_00] y_grid[2019-02-05_12_00_00]
 y_grid[2019-02-05_13_00_00] y_grid[2019-02-05_14_00_00]
 y_grid[2019-02-05_15_00_00] y_grid[2019-02-05_16_00_00]
 y_grid[2019-02-05_17_00_00] y_grid[2019-02-05_18_00_00]
 y_grid[2019-02-05_19_00_00] y_grid[2019-02-05_20_00_00]
 y_grid[2019-02-05_21_00_00] y_grid[2019-02-05_22_00_00]
 y_grid[2019-02-05_23_00_00] y_grid[2019-02-06_00_00_00]
 y_grid[2019-02-06_01_00_00] y_grid[2019-02-06_02_00_00]
 y_grid[2019-02-06_03_00_00] y_grid[2019-02-06_04_00_00]
 y_grid[2019-02-06_05_00_00] y_grid[2019-02-06_06_00_00]
 y_grid_2EV[2019-02-05_07_00_00] y_grid_2EV[2019-02-05_08_00_00]
 y_grid_2EV[2019-02-05_09_00_00] y_grid_2EV[2019-02-05_10_00_00]
 y_grid_2EV[2019-02-05_11_00_00] y_grid_2EV[2019-02-05_12_00_00]
 y_grid_2EV[2019-02-05_13_00_00] y_grid_2EV[2019-02-05_14_00_00]
 y_grid_2EV[2019-02-05_15_00_00] y_grid_2EV[2019-02-05_16_00_00]
 y_grid_2EV[2019-02-05_17_00_00] y_grid_2EV[2019-02-05_18_00_00]
 y_grid_2EV[2019-02-05_19_00_00] y_grid_2EV[2019-02-05_20_00_00]
 y_grid_2EV[2019-02-05_21_00_00] y_grid_2EV[2019-02-05_22_00_00]
 y_grid_2EV[2019-02-05_23_00_00] y_grid_2EV[2019-02-06_00_00_00]
 y_grid_2EV[2019-02-06_01_00_00] y_grid_2EV[2019-02-06_02_00_00]
 y_grid_2EV[2019-02-06_03_00_00] y_grid_2EV[2019-02-06_04_00_00]
 y_grid_2EV[2019-02-06_05_00_00] y_grid_2EV[2019-02-06_06_00_00]
End
